1954.24 0
0 27 86 84 87 81 11 23 97 93 89 10 5 1 2 0
0 65 50 49 71 74 75 73 0
0 18 13 85 83 44 28 36 82 7 9 6 100 8 3 4 0
0 17 90 92 24 22 40 33 0
0 66 95 98 94 88 91 96 0
0 57 59 60 58 30 35 63 56 79 78 77 51 0
0 52 68 62 61 80 69 76 34 42 39 41 64 21 0
0 19 20 26 99 0
0 25 12 16 15 0
0 32 46 47 48 37 54 45 55 72 70 14 0
0 53 43 38 31 67 29 0